check/benchmarks/mps_files/problem.mps
NAME          SAMPLE

OBJSENSE
 MAX

ROWS
 N  COST
 L  C1
 G  C2
COLUMNS
    X1        COST                 1
    X1        C1                   2
    X1        C2                   1
    X2        COST                 1
    X2        C1                   5
    X2        C2                   1
RHS
    RHS1      C1                   6
    RHS1      C2                   2
BOUNDS
 LO BND       X1                   0
 LO BND       X2                   0
ENDATA
