check/problems/lp_files/problem.lp
Maximize
 obj: X1 + X2
Subject To
 c1: + 2.0 X1 - X1 <= 6.0
 c2: + 5.0 X2 - X2 >= -2.0
Bounds
 X1 >= 0.0
 X2 >= 0.0
End
